% semilla = 1
n = 10 ;
m = 45 ;
E =
[| 6 , 9  | 10, 6  | 1 , 2  | 8 , 7  | 10, 3
 | 5 , 6  | 3 , 5  | 3 , 5  | 8 , 10 | 2 , 8
 | 1 , 7  | 10, 8  | 7 , 10 | 2 , 1  | 2 , 9
 | 9 , 4  | 10, 9  | 8 , 4  | 7 , 6  | 2 , 10
 | 4 , 5  | 9 , 2  | 5 , 1  | 4 , 10 | 3 , 1
 | 5 , 10 | 3 , 8  | 8 , 10 | 9 , 7  | 10, 4
 | 8 , 5  | 6 , 10 | 4 , 7  | 9 , 1  | 3 , 8
 | 8 , 10 | 8 , 4  | 1 , 9  | 8 , 2  | 2 , 4
 | 1 , 9  | 7 , 5  | 6 , 7  | 3 , 6  | 8 , 9  |];
